p wcnf 162 324 325 
1 -13 132 0 
1 153 -39 0 
1 -79 27 0 
1 42 -2 0 
1 83 -141 0 
1 104 78 0 
1 77 -147 0 
1 65 -85 0 
1 108 114 0 
1 -144 -156 0 
1 157 -118 0 
1 75 10 0 
1 159 -25 0 
1 -55 -98 0 
1 118 31 0 
1 139 79 0 
1 134 -28 0 
1 -149 -72 0 
1 -4 113 0 
1 94 -90 0 
1 84 103 0 
1 -47 -125 0 
1 -149 -11 0 
1 -130 59 0 
1 59 -81 0 
1 -92 123 0 
1 161 -10 0 
1 -147 126 0 
1 48 146 0 
1 -90 118 0 
1 39 48 0 
1 -53 110 0 
1 122 -85 0 
1 36 -77 0 
1 -76 123 0 
1 53 -130 0 
1 113 -56 0 
1 85 14 0 
1 -13 52 0 
1 -158 -2 0 
1 -90 32 0 
1 -6 124 0 
1 71 77 0 
1 -94 -124 0 
1 -32 -147 0 
1 69 86 0 
1 136 -12 0 
1 137 4 0 
1 -141 75 0 
1 22 107 0 
1 -67 20 0 
1 -17 -22 0 
1 -20 -8 0 
1 -53 131 0 
1 -76 6 0 
1 141 -12 0 
1 -146 83 0 
1 -44 68 0 
1 73 -51 0 
1 -88 145 0 
1 109 38 0 
1 111 162 0 
1 154 -115 0 
1 160 104 0 
1 -155 84 0 
1 91 55 0 
1 -75 -80 0 
1 70 98 0 
1 67 -149 0 
1 -8 142 0 
1 1 33 0 
1 80 -6 0 
1 136 99 0 
1 43 -24 0 
1 99 142 0 
1 88 -41 0 
1 -77 51 0 
1 -117 68 0 
1 128 42 0 
1 108 70 0 
1 -121 -26 0 
1 -27 144 0 
1 -19 138 0 
1 -20 128 0 
1 57 132 0 
1 39 -114 0 
1 123 -64 0 
1 76 -109 0 
1 100 -88 0 
1 -68 -18 0 
1 89 -125 0 
1 115 60 0 
1 -106 5 0 
1 -146 156 0 
1 9 -8 0 
1 -151 -91 0 
1 -28 67 0 
1 -38 -120 0 
1 -90 11 0 
1 159 -51 0 
1 -134 -60 0 
1 150 -16 0 
1 40 -129 0 
1 -9 -156 0 
1 139 61 0 
1 -14 4 0 
1 76 9 0 
1 -131 -55 0 
1 -143 96 0 
1 -131 -134 0 
1 -105 -98 0 
1 62 68 0 
1 -65 142 0 
1 161 -56 0 
1 -126 115 0 
1 -110 -13 0 
1 -137 -113 0 
1 100 90 0 
1 -107 -79 0 
1 160 104 0 
1 55 -60 0 
1 33 124 0 
1 158 -5 0 
1 -53 -149 0 
1 -129 -115 0 
1 -140 137 0 
1 86 -95 0 
1 -86 18 0 
1 -74 79 0 
1 62 -52 0 
1 78 -137 0 
1 149 105 0 
1 50 -134 0 
1 -122 -58 0 
1 -142 -40 0 
1 -149 -24 0 
1 -119 -121 0 
1 -150 -56 0 
1 -59 133 0 
1 129 64 0 
1 83 54 0 
1 111 41 0 
1 24 126 0 
1 15 131 0 
1 123 -97 0 
1 -97 -108 0 
1 -40 -50 0 
1 136 5 0 
1 -16 -115 0 
1 -81 114 0 
1 5 -142 0 
1 -65 127 0 
1 -113 -2 0 
1 108 -37 0 
1 110 68 0 
1 -80 150 0 
1 121 -86 0 
1 48 -159 0 
1 -41 -60 0 
1 -108 -29 0 
1 135 120 0 
1 -56 63 0 
1 154 -127 0 
1 97 -36 0 
1 147 61 0 
1 -105 -56 0 
1 -107 -146 0 
1 161 75 0 
1 -146 -55 0 
1 -86 -160 0 
1 -42 6 0 
1 159 -74 0 
1 141 153 0 
1 137 -43 0 
1 -86 -162 0 
1 -25 -58 0 
1 -68 -108 0 
1 112 21 0 
1 -138 -12 0 
1 -69 45 0 
1 70 -158 0 
1 21 88 0 
1 -160 -77 0 
1 31 -97 0 
1 99 -95 0 
1 -82 44 0 
1 129 -87 0 
1 -156 77 0 
1 -107 82 0 
1 94 111 0 
1 76 -28 0 
1 122 -96 0 
1 -102 -126 0 
1 7 -105 0 
1 77 122 0 
1 -98 52 0 
1 -46 94 0 
1 84 43 0 
1 -136 -38 0 
1 96 45 0 
1 -73 97 0 
1 -61 -161 0 
1 64 -148 0 
1 -155 -5 0 
1 7 62 0 
1 111 27 0 
1 -138 14 0 
1 -81 51 0 
1 50 -40 0 
1 -100 72 0 
1 -8 -139 0 
1 -84 71 0 
1 133 -94 0 
1 -56 48 0 
1 15 112 0 
1 -3 -4 0 
1 37 -35 0 
1 -141 140 0 
1 129 130 0 
1 -146 148 0 
1 -54 154 0 
1 -137 -79 0 
1 82 -107 0 
1 133 -22 0 
1 87 -159 0 
1 -79 13 0 
1 -71 -8 0 
1 85 79 0 
1 47 -29 0 
1 159 68 0 
1 -153 109 0 
1 50 46 0 
1 -31 -97 0 
1 -143 -116 0 
1 -101 9 0 
1 -63 99 0 
1 47 106 0 
1 -66 -73 0 
1 -3 69 0 
1 84 103 0 
1 -5 51 0 
1 103 127 0 
1 -145 137 0 
1 -48 160 0 
1 -120 -63 0 
1 -94 -75 0 
1 149 105 0 
1 127 101 0 
1 4 -25 0 
1 -105 -136 0 
1 15 20 0 
1 137 -72 0 
1 -80 -109 0 
1 19 16 0 
1 -114 -159 0 
1 -121 -7 0 
1 -113 31 0 
1 155 -18 0 
1 106 7 0 
1 -87 21 0 
1 135 -65 0 
1 56 18 0 
1 -33 108 0 
1 -63 148 0 
1 -13 -122 0 
1 51 -1 0 
1 -103 -152 0 
1 -2 1 0 
1 -113 14 0 
1 112 -69 0 
1 158 82 0 
1 -68 123 0 
1 99 -17 0 
1 79 137 0 
1 97 -115 0 
1 -104 111 0 
1 26 -151 0 
1 -79 -10 0 
1 -46 6 0 
1 101 -41 0 
1 -128 20 0 
1 -114 -68 0 
1 80 -91 0 
1 -46 92 0 
1 -81 -84 0 
1 53 67 0 
1 68 -66 0 
1 -92 58 0 
1 -113 -99 0 
1 -136 107 0 
1 146 29 0 
1 -79 -153 0 
1 -49 105 0 
1 -26 -136 0 
1 149 -68 0 
1 46 -68 0 
1 -126 111 0 
1 -77 -16 0 
1 -98 16 0 
1 -37 28 0 
1 -16 -105 0 
1 -147 71 0 
1 14 21 0 
1 80 37 0 
1 5 10 0 
1 43 65 0 
1 -13 115 0 
1 136 142 0 
1 -3 159 0 
1 -50 -28 0 
1 135 60 0 
1 142 84 0 
1 46 31 0 
1 -64 -24 0 
1 53 -62 0 
1 160 -153 0 
1 -84 -127 0 
1 -125 -40 0 
1 132 -28 0 
1 -126 -116 0 
1 151 -43 0 
1 155 -16 0 
1 -144 107 0 
1 -115 17 0 
